DIMENSION: 7
EDGE_WEIGHT_TYPE: EXPLICIT
EDGE_WEIGHT_FORMAT: FULL_MATRIX
EDGE_WEIGHT_SECTION:
32767 99 59 42 39 52 44 
99 32767 21 59 53 35 19 
59 21 32767 84 15 35 83 
42 59 84 32767 44 57 44 
39 53 15 44 32767 21 22 
52 35 35 57 21 32767 47 
44 19 83 44 22 47 32767 
EOF